695864
0,35,6,62,71,31,139,134,82,156,73,38,206,66,48,70,117,162,126,146,42,30,177,198,97,41,159,112,72,208,125,69,85,217,205,135,194,118,192,83,28,173,197,199,64,153,163,13,164,193,96,7,119,109,200,9,113,190,151,121,50,176,225,68,22,158,207,2,184,188,15,59,137,136,14,29,63,43,219,12,224,47,110,133,18,226,124,45,213,196,142,10,138,75,56,94,78,166,187,180,172,147,130,123,84,122,24,60,181,79,131,148,76,221,40,127,140,23,215,99,52,91,17,55,53,174,104,201,98,189,65,218,105,120,179,157,81,1,114,51,220,58,57,212,92,167,171,203,44,211,229,103,102,186,11,145,87,108,185,170,149,89,169,141,227,3,20,216,152,128,32,223,37,202,5,46,16,175,222,4,155,210,144,143,116,209,182,19,21,25,90,95,67,8,165,100,183,160,115,88,106,195,178,191,36,33,204,74,214,77,27,150,49,107,93,34,86,54,129,80,39,26,168,101,61,111,154,132,228,161,0